# Solution for model deposition_srl_ilp
# Objective value = 3.0680490974056469e+00
Z_426_2_0 0
Z_426_2_1 0
Z_426_2_2 1
Z_426_2_3 0
Z_426_0_0 0
Z_426_0_1 0
Z_426_0_2 0
Z_426_0_3 0
Z_426_1_0 1
Z_426_1_1 0
Z_426_1_2 0
Z_426_1_3 0
Z_426_4_0 0
Z_426_4_1 0
Z_426_4_2 0
Z_426_4_3 1
Z_426_5_0 0
Z_426_5_1 1
Z_426_5_2 0
Z_426_5_3 0
Z_426_3_0 0
Z_426_3_1 0
Z_426_3_2 0
Z_426_3_3 0
Z_585_0_0 0
Z_585_0_1 0
Z_585_0_2 1
Z_585_0_3 0
